7
[[-1, 1276187355, 1295015094, 0, 2127539439, 0, 137007359],[0, -1, 35353449, 1114097547, 1336973946, 0, 1308971914],[1620590276, 403912175, -1, 1505099930, 71077453, 383432075, 867623036],[777759180, 270517462, 0, -1, 358390974, 0, 0],[0, 0, 0, 1599006934, -1, 294989566, 40180757],[1296226494, 1966149758, 1031458374, 1104222152, 730836748, -1, 652510611],[1019859661, 1191876182, 0, 0, 709469451, 0, -1]]